rsa_demo_benchmark_output/128/certs/0010.assert.smt2
; benchmark generated from python API
(set-info :status unknown)
(declare-fun p () Int)
(declare-fun q () Int)
(declare-fun n () Int)
(assert
 (= p 9431281665247267487))
(assert
 (= q 12320788200707599693))
(assert
 (= n 116200823858728455346998748642890081491))
(assert
 (= (* p q) n))
(assert
 (> p 1))
(assert
 (> q 1))
(check-sat)
